NAME : tsp25_7.177.tour
COMMENT : Length = 177
COMMENT : Found by LKH [Keld Helsgaun]
TYPE : TOUR
DIMENSION : 25
TOUR_SECTION
1
11
14
10
24
15
19
3
25
7
18
13
6
17
8
22
16
9
21
23
12
5
4
2
20
-1
EOF
